Reading model...
...model read.
creating competitive generators file...
...competitive generators recorded.
Loading data...
.. real-time data read.
Compiling instance...
...instance created.
Creating Offer Mitigation (model will solve as dispatch if TRUE)...
...storage offer mitigation file created
Converting model to MPEC...
...converted
NOTE: initial MIP solve with only storage competitive to get feasible solution
Solving...

Welcome to IBM(R) ILOG(R) CPLEX(R) Interactive Optimizer 12.9.0.0
  with Simplex, Mixed Integer & Barrier Optimizers
5725-A06 5725-A29 5724-Y48 5724-Y49 5724-Y54 5724-Y55 5655-Y21
Copyright IBM Corp. 1988, 2019.  All Rights Reserved.

Type 'help' for a list of available commands.
Type 'help' followed by a command name for more
information on commands.

CPLEX> Logfile 'cplex.log' closed.
Logfile 'C:\Users\llavin\Desktop\test85\logs\tmpiw3iykwy.cplex.log' open.
CPLEX> New value for parallel optimization mode: -1
CPLEX> New value for mixed integer optimality gap tolerance: 0.001
CPLEX> New value for deterministic time limit in ticks: 100000
CPLEX> Problem 'C:\Users\llavin\Desktop\test85\logs\tmpundpykns.pyomo.lp' read.
Read time = 0.52 sec. (27.84 ticks)
CPLEX> Problem name         : C:\Users\llavin\Desktop\test85\logs\tmpundpykns.pyomo.lp
Objective sense      : Maximize
Variables            :  107779  [Nneg: 1,  Box: 44054,  Free: 8928,
                                 Binary: 54796]
Objective nonzeros   :   17521
Linear constraints   :  246995  [Less: 82866,  Greater: 118424,  Equal: 45705]
  Nonzeros           :  580828
  RHS nonzeros       :  134590

Variables            : Min LB: -5000.000        Max UB: 1000000.       
Objective nonzeros   : Min   : 0.008333333      Max   : 2500.000       
Linear constraints   :
  Nonzeros           : Min   : 0.008333333      Max   : 1000000.       
  RHS nonzeros       : Min   : 0.008333333      Max   : 1000000.       
CPLEX> CPXPARAM_Parallel                                -1
CPXPARAM_DetTimeLimit                            100000
CPXPARAM_MIP_Tolerances_MIPGap                   0.001
Tried aggregator 3 times.
MIP Presolve eliminated 181791 rows and 41511 columns.
MIP Presolve added 6047 rows and 0 columns.
MIP Presolve modified 48842 coefficients.
Aggregator did 25822 substitutions.
Reduced MIP has 45429 rows, 38814 columns, and 125906 nonzeros.
Reduced MIP has 15264 binaries, 0 generals, 0 SOSs, and 0 indicators.
Presolve time = 0.59 sec. (333.12 ticks)
Probing fixed 759 vars, tightened 6957 bounds.
Probing time = 0.38 sec. (13.14 ticks)
Tried aggregator 2 times.
MIP Presolve eliminated 1712 rows and 1520 columns.
MIP Presolve modified 5511 coefficients.
Aggregator did 62 substitutions.
Reduced MIP has 43655 rows, 37232 columns, and 120776 nonzeros.
Reduced MIP has 14504 binaries, 0 generals, 0 SOSs, and 0 indicators.
Presolve time = 0.22 sec. (207.37 ticks)
Probing fixed 1 vars, tightened 254 bounds.
Probing time = 0.49 sec. (16.28 ticks)
Clique table members: 79558.
MIP emphasis: balance optimality and feasibility.
MIP search method: dynamic search.
Parallel mode: opportunistic, using up to 32 threads.
Root relaxation solution time = 1.02 sec. (1726.24 ticks)

        Nodes                                         Cuts/
   Node  Left     Objective  IInf  Best Integer    Best Bound    ItCnt     Gap

      0     0        0.0000   368                      0.0000    10869         
*     0+    0                            0.0000        0.0000             0.00%

Root node processing (before b&c):
  Real time             =    3.42 sec. (2732.69 ticks)
Parallel b&c, 32 threads:
  Real time             =    0.00 sec. (0.00 ticks)
  Sync time (average)   =    0.00 sec.
  Wait time (average)   =    0.00 sec.
                          ------------
Total (root+branch&cut) =    3.42 sec. (2732.69 ticks)

Solution pool: 1 solution saved.

MIP - Integer optimal, tolerance (0.001/1e-06):  Objective =  3.6916389945e-09
Current MIP best bound =  4.2907828401e-09 (gap = 5.99144e-10, 0.00%)
Solution time =    3.47 sec.  Iterations = 10869  Nodes = 0 (1)
Deterministic time = 2733.00 ticks  (787.84 ticks/sec)

CPLEX> Incumbent solution written to file 'C:\Users\llavin\Desktop\test85\logs\tmp00hbrlul.cplex.sol'.
CPLEX> NOTE: no warmstart specified for MIP iteration, default behavior is true
NOTE: resolving with all competitive generators using storage-only solution to warmstart
Solving...

Welcome to IBM(R) ILOG(R) CPLEX(R) Interactive Optimizer 12.9.0.0
  with Simplex, Mixed Integer & Barrier Optimizers
5725-A06 5725-A29 5724-Y48 5724-Y49 5724-Y54 5724-Y55 5655-Y21
Copyright IBM Corp. 1988, 2019.  All Rights Reserved.

Type 'help' for a list of available commands.
Type 'help' followed by a command name for more
information on commands.

CPLEX> Logfile 'cplex.log' closed.
Logfile 'C:\Users\llavin\Desktop\test85\logs\tmp8qj8eqms.cplex.log' open.
CPLEX> New value for parallel optimization mode: -1
CPLEX> New value for mixed integer optimality gap tolerance: 0.001
CPLEX> New value for deterministic time limit in ticks: 100000
CPLEX> Problem 'C:\Users\llavin\Desktop\test85\logs\tmpqyy1pqka.pyomo.lp' read.
Read time = 0.53 sec. (27.89 ticks)
CPLEX> MIP start file 'C:\Users\llavin\Desktop\test85\logs\tmpct0e18y4.cplex.mst' read.
CPLEX> Problem name         : C:\Users\llavin\Desktop\test85\logs\tmpqyy1pqka.pyomo.lp
Objective sense      : Maximize
Variables            :  109219  [Nneg: 1,  Box: 45494,  Free: 8928,
                                 Binary: 54796]
Objective nonzeros   :   18913
Linear constraints   :  246995  [Less: 82866,  Greater: 118424,  Equal: 45705]
  Nonzeros           :  580828
  RHS nonzeros       :  134590

Variables            : Min LB: -5000.000        Max UB: 1000000.       
Objective nonzeros   : Min   : 0.008333333      Max   : 2500.000       
Linear constraints   :
  Nonzeros           : Min   : 0.008333333      Max   : 1000000.       
  RHS nonzeros       : Min   : 0.008333333      Max   : 1000000.       
CPLEX> CPXPARAM_Parallel                                -1
CPXPARAM_DetTimeLimit                            100000
CPXPARAM_MIP_Tolerances_MIPGap                   0.001
Warning:  No solution found from 1 MIP starts.
Retaining values of one MIP start for possible repair.
Tried aggregator 3 times.
MIP Presolve eliminated 181791 rows and 42951 columns.
MIP Presolve added 6047 rows and 0 columns.
MIP Presolve modified 48842 coefficients.
Aggregator did 25822 substitutions.
Reduced MIP has 45429 rows, 38814 columns, and 125906 nonzeros.
Reduced MIP has 15264 binaries, 0 generals, 0 SOSs, and 0 indicators.
Presolve time = 0.61 sec. (333.84 ticks)
Probing fixed 759 vars, tightened 6957 bounds.
Probing time = 0.38 sec. (13.14 ticks)
Tried aggregator 2 times.
MIP Presolve eliminated 1712 rows and 1520 columns.
MIP Presolve modified 5511 coefficients.
Aggregator did 62 substitutions.
Reduced MIP has 43655 rows, 37232 columns, and 120776 nonzeros.
Reduced MIP has 14504 binaries, 0 generals, 0 SOSs, and 0 indicators.
Presolve time = 0.23 sec. (207.38 ticks)
Probing fixed 1 vars, tightened 254 bounds.
Probing time = 0.50 sec. (16.28 ticks)
Clique table members: 79558.
MIP emphasis: balance optimality and feasibility.
MIP search method: dynamic search.
Parallel mode: opportunistic, using up to 32 threads.
Root relaxation solution time = 1.00 sec. (1762.72 ticks)

        Nodes                                         Cuts/
   Node  Left     Objective  IInf  Best Integer    Best Bound    ItCnt     Gap

      0     0    19758.6158   404                  19758.6158    10058         
      0     0    19758.6158    82               Flowcuts: 124    10083         
      0     0    19758.6158    86                   Cuts: 110    10113         
*     0+    0                        19723.1637    19758.6158             0.18%
      0     0    19758.6158    80    19723.1637      Cuts: 83    10134    0.18%
      0     0    19758.6158    76    19723.1637      Cuts: 79    10161    0.18%
      0     0    19758.5034    79    19723.1637      Cuts: 59    10183    0.18%
Repair heuristic found nothing.
      0     2    infeasible          19723.1637   Impl Bds: 6    10193    0.18%
Elapsed time = 10.30 sec. (5586.36 ticks, tree = 0.02 MB, solutions = 1)
    105   167    19726.3276    38    19723.1637    19753.8696    11070    0.16%
    325    51    19739.3131    64    19723.1637    19753.8696    10592    0.16%
    683   187    19728.3819    52    19723.1637    19753.8696    11148    0.16%
*   917   264      integral     0    19730.8744    19753.8696    11755    0.12%
*  1205   378      integral     0    19730.8744    19753.8696    12540    0.12%
*  1335   459      integral     0    19733.3164    19753.8696    13139    0.10%
*  1358   484      integral     0    19736.1677    19753.8696    13267    0.09%

Clique cuts applied:  1
Cover cuts applied:  3
Implied bound cuts applied:  30
Flow cuts applied:  172
Mixed integer rounding cuts applied:  7

Root node processing (before b&c):
  Real time             =    8.72 sec. (5586.85 ticks)
Parallel b&c, 32 threads:
  Real time             =    8.98 sec. (1346.33 ticks)
  Sync time (average)   =    2.44 sec.
  Wait time (average)   =    0.00 sec.
                          ------------
Total (root+branch&cut) =   17.70 sec. (6933.18 ticks)

Solution pool: 8 solutions saved.

MIP - Integer optimal, tolerance (0.001/1e-06):  Objective =  1.9736167655e+04
Current MIP best bound =  1.9753869571e+04 (gap = 17.7019, 0.09%)
Solution time =   17.73 sec.  Iterations = 18294  Nodes = 1383 (738)
Deterministic time = 6933.49 ticks  (390.97 ticks/sec)

CPLEX> Incumbent solution written to file 'C:\Users\llavin\Desktop\test85\logs\tmpwk9njpfx.cplex.sol'.
CPLEX> Exporting results... 
